p wcnf 148 74 75 
1 -119 -113 0 
1 15 -114 0 
1 139 44 0 
1 -119 118 0 
1 -124 -81 0 
1 -29 49 0 
1 -106 -148 0 
1 -56 103 0 
1 146 -132 0 
1 59 -28 0 
1 40 13 0 
1 45 115 0 
1 -141 -59 0 
1 120 -12 0 
1 -85 29 0 
1 58 99 0 
1 -38 -45 0 
1 -21 138 0 
1 120 53 0 
1 128 -45 0 
1 16 -98 0 
1 -22 140 0 
1 -63 35 0 
1 8 -145 0 
1 29 -90 0 
1 -69 57 0 
1 -55 107 0 
1 3 -58 0 
1 61 48 0 
1 -148 -45 0 
1 40 145 0 
1 -94 -61 0 
1 -13 -123 0 
1 31 80 0 
1 -33 -32 0 
1 80 -142 0 
1 -26 -66 0 
1 58 -85 0 
1 101 -1 0 
1 137 -27 0 
1 -13 -115 0 
1 80 -27 0 
1 142 56 0 
1 -40 53 0 
1 -121 -66 0 
1 69 -22 0 
1 7 -133 0 
1 71 -32 0 
1 -79 101 0 
1 -129 -78 0 
1 -79 7 0 
1 -145 32 0 
1 13 32 0 
1 9 -18 0 
1 95 -63 0 
1 -25 -49 0 
1 113 37 0 
1 -54 -102 0 
1 64 31 0 
1 39 100 0 
1 58 -7 0 
1 -20 97 0 
1 92 110 0 
1 64 -124 0 
1 -140 82 0 
1 109 -76 0 
1 138 77 0 
1 73 74 0 
1 -49 1 0 
1 -76 -102 0 
1 26 -52 0 
1 -109 41 0 
1 1 111 0 
1 139 1 0 
